# Solution for model mimicry_srl_ilp
# Objective value = 1.7344976358097446e+00
Z_502_0_0 0
Z_502_0_1 0
Z_502_0_2 1
Z_502_0_3 0
Z_502_0_4 0
Z_480_0_0 0
Z_480_0_1 0
Z_480_0_2 1
Z_480_0_3 0
Z_480_0_4 0
